(set-logic QF_S)
(declare-fun var0 () String)
(assert (str.in.re var0 (re.++ (re.* (re.* (str.to.re "00"))) (re.++ (re.union (re.+ (str.to.re "111")) (re.+ (str.to.re "2"))) (re.++ (re.* (re.+ (str.to.re "33"))) (re.++ (re.* (re.union (str.to.re "4") (str.to.re "5"))) (re.++ (re.union (re.union (str.to.re "66") (str.to.re "77")) (re.union (str.to.re "8") (str.to.re "99"))) (re.++ (re.union (re.* (str.to.re "aaa")) (re.* (str.to.re "b"))) (re.++ (re.+ (re.* (str.to.re "ccc"))) (re.++ (re.+ (re.* (str.to.re "ddd"))) (re.++ (re.union (re.union (str.to.re "eee") (str.to.re "fff")) (re.union (str.to.re "gg") (str.to.re "h"))) (re.++ (re.* (re.union (str.to.re "iii") (str.to.re "jjj"))) (re.++ (re.+ (re.+ (str.to.re "kk"))) (re.++ (re.union (re.* (str.to.re "l")) (re.* (str.to.re "mmm"))) (re.++ (re.union (re.union (str.to.re "n") (str.to.re "o")) (re.union (str.to.re "ppp") (str.to.re "q"))) (re.++ (re.* (re.+ (str.to.re "rr"))) (re.++ (re.+ (re.* (str.to.re "sss"))) (re.++ (re.+ (re.* (str.to.re "tt"))) (re.++ (re.+ (re.union (str.to.re "uu") (str.to.re "v"))) (re.++ (re.+ (re.+ (str.to.re "www"))) (re.++ (re.* (re.* (str.to.re "x"))) (re.++ (re.* (re.* (str.to.re "y"))) (re.++ (re.* (re.* (str.to.re "z"))) (re.++ (re.* (re.+ (str.to.re "AA"))) (re.++ (re.union (re.union (str.to.re "BB") (str.to.re "CC")) (re.union (str.to.re "D") (str.to.re "EEE"))) (re.++ (re.* (re.* (str.to.re "F"))) (re.++ (re.+ (re.+ (str.to.re "GGG"))) (re.++ (re.union (re.* (str.to.re "H")) (re.* (str.to.re "II"))) (re.++ (re.* (re.* (str.to.re "JJJ"))) (re.++ (re.* (re.* (str.to.re "KKK"))) (re.++ (re.* (re.union (str.to.re "L") (str.to.re "MM"))) (re.++ (re.* (re.* (str.to.re "NN"))) (re.++ (re.union (re.union (str.to.re "O") (str.to.re "PPP")) (re.union (str.to.re "Q") (str.to.re "RRR"))) (re.++ (re.* (re.union (str.to.re "SSS") (str.to.re "TTT"))) (re.++ (re.+ (re.+ (str.to.re "UU"))) (re.++ (re.* (re.union (str.to.re "V") (str.to.re "WW"))) (re.++ (re.+ (re.* (str.to.re "XX"))) (re.++ (re.union (re.union (str.to.re "YYY") (str.to.re "ZZ")) (re.union (str.to.re "!") (str.to.re """"""""))) (re.++ (re.* (re.union (str.to.re "###") (str.to.re "$$$"))) (re.++ (re.+ (re.union (str.to.re "%%") (str.to.re "&&"))) (re.++ (re.union (re.+ (str.to.re "''")) (re.+ (str.to.re "("))) (re.++ (re.union (re.+ (str.to.re ")))")) (re.+ (str.to.re "*"))) (re.++ (re.union (re.union (str.to.re "++") (str.to.re ",")) (re.union (str.to.re "--") (str.to.re "."))) (re.++ (re.+ (re.+ (str.to.re "/"))) (re.++ (re.* (re.union (str.to.re "::") (str.to.re ";;;"))) (re.++ (re.union (re.union (str.to.re "<<") (str.to.re "=")) (re.union (str.to.re ">") (str.to.re "???"))) (re.++ (re.+ (re.* (str.to.re "@@@"))) (re.++ (re.union (re.+ (str.to.re "[[[")) (re.+ (str.to.re "\\\\"))) (re.++ (re.union (re.* (str.to.re "]]")) (re.* (str.to.re "^^"))) (re.++ (re.* (re.+ (str.to.re "___"))) (re.++ (re.union (re.+ (str.to.re "`")) (re.+ (str.to.re "{{{"))) (re.++ (re.union (re.+ (str.to.re "|")) (re.+ (str.to.re "}"))) (re.++ (re.* (re.union (str.to.re "~~~") (str.to.re "0"))) (re.++ (re.* (re.* (str.to.re "111"))) (re.++ (re.union (re.+ (str.to.re "2")) (re.+ (str.to.re "33"))) (re.++ (re.* (re.+ (str.to.re "444"))) (re.++ (re.* (re.* (str.to.re "55"))) (re.++ (re.+ (re.+ (str.to.re "66"))) (re.++ (re.* (re.+ (str.to.re "77"))) (re.++ (re.* (re.* (str.to.re "8"))) (re.++ (re.union (re.+ (str.to.re "999")) (re.+ (str.to.re "a"))) (re.++ (re.* (re.+ (str.to.re "bbb"))) (re.++ (re.+ (re.* (str.to.re "cc"))) (re.++ (re.union (re.* (str.to.re "dd")) (re.* (str.to.re "eee"))) (re.++ (re.union (re.+ (str.to.re "f")) (re.+ (str.to.re "ggg"))) (re.++ (re.union (re.* (str.to.re "h")) (re.* (str.to.re "ii"))) (re.++ (re.union (re.* (str.to.re "jj")) (re.* (str.to.re "kkk"))) (re.++ (re.union (re.* (str.to.re "lll")) (re.* (str.to.re "m"))) (re.++ (re.union (re.union (str.to.re "nn") (str.to.re "o")) (re.union (str.to.re "pp") (str.to.re "q"))) (re.++ (re.+ (re.* (str.to.re "r"))) (re.++ (re.* (re.* (str.to.re "sss"))) (re.++ (re.+ (re.+ (str.to.re "t"))) (re.++ (re.union (re.union (str.to.re "uuu") (str.to.re "vv")) (re.union (str.to.re "ww") (str.to.re "x"))) (re.++ (re.union (re.+ (str.to.re "yyy")) (re.+ (str.to.re "z"))) (re.++ (re.* (re.+ (str.to.re "A"))) (re.++ (re.union (re.union (str.to.re "B") (str.to.re "CCC")) (re.union (str.to.re "DD") (str.to.re "EE"))) (re.++ (re.union (re.+ (str.to.re "FF")) (re.+ (str.to.re "G"))) (re.++ (re.+ (re.+ (str.to.re "HH"))) (re.++ (re.+ (re.* (str.to.re "I"))) (re.++ (re.+ (re.* (str.to.re "JJJ"))) (re.++ (re.+ (re.union (str.to.re "KKK") (str.to.re "LL"))) (re.++ (re.+ (re.* (str.to.re "M"))) (re.++ (re.union (re.+ (str.to.re "N")) (re.+ (str.to.re "OO"))) (re.++ (re.union (re.+ (str.to.re "PP")) (re.+ (str.to.re "QQ"))) (re.++ (re.union (re.+ (str.to.re "RRR")) (re.+ (str.to.re "SSS"))) (re.++ (re.* (re.+ (str.to.re "TTT"))) (re.++ (re.+ (re.+ (str.to.re "UUU"))) (re.++ (re.* (re.* (str.to.re "VVV"))) (re.++ (re.+ (re.union (str.to.re "WW") (str.to.re "X"))) (re.++ (re.+ (re.union (str.to.re "YY") (str.to.re "ZZ"))) (re.++ (re.+ (re.union (str.to.re "!!") (str.to.re """"))) (re.++ (re.* (re.union (str.to.re "###") (str.to.re "$$$"))) (re.++ (re.union (re.+ (str.to.re "%")) (re.+ (str.to.re "&"))) (re.++ (re.* (re.+ (str.to.re "''"))) (re.++ (re.* (re.union (str.to.re "(") (str.to.re ")"))) (re.++ (re.union (re.* (str.to.re "*")) (re.* (str.to.re "+++"))) (re.++ (re.+ (re.union (str.to.re ",,,") (str.to.re "-"))) (re.++ (re.+ (re.+ (str.to.re ".."))) (re.++ (re.* (re.+ (str.to.re "//"))) (re.++ (re.union (re.+ (str.to.re ":")) (re.+ (str.to.re ";"))) (re.++ (re.union (re.+ (str.to.re "<<")) (re.+ (str.to.re "=="))) (re.++ (re.* (re.* (str.to.re ">>"))) (re.++ (re.* (re.* (str.to.re "?"))) (re.++ (re.* (re.+ (str.to.re "@@"))) (re.++ (re.union (re.+ (str.to.re "[[")) (re.+ (str.to.re "\\\\"))) (re.++ (re.union (re.union (str.to.re "]") (str.to.re "^^")) (re.union (str.to.re "__") (str.to.re "```"))) (re.++ (re.+ (re.union (str.to.re "{{{") (str.to.re "|||"))) (re.++ (re.+ (re.* (str.to.re "}}}"))) (re.++ (re.+ (re.union (str.to.re "~~~") (str.to.re "0"))) (re.++ (re.* (re.* (str.to.re "1"))) (re.++ (re.union (re.union (str.to.re "222") (str.to.re "3")) (re.union (str.to.re "44") (str.to.re "5"))) (re.++ (re.union (re.+ (str.to.re "6")) (re.+ (str.to.re "777"))) (re.++ (re.+ (re.+ (str.to.re "8"))) (re.++ (re.* (re.+ (str.to.re "999"))) (re.++ (re.+ (re.+ (str.to.re "aa"))) (re.++ (re.union (re.* (str.to.re "b")) (re.* (str.to.re "c"))) (re.++ (re.* (re.+ (str.to.re "dd"))) (re.++ (re.union (re.+ (str.to.re "e")) (re.+ (str.to.re "fff"))) (re.++ (re.+ (re.+ (str.to.re "gg"))) (re.++ (re.union (re.+ (str.to.re "hhh")) (re.+ (str.to.re "ii"))) (re.++ (re.+ (re.* (str.to.re "jjj"))) (re.++ (re.+ (re.* (str.to.re "kkk"))) (re.++ (re.* (re.+ (str.to.re "ll"))) (re.++ (re.* (re.* (str.to.re "mm"))) (re.++ (re.union (re.* (str.to.re "nn")) (re.* (str.to.re "oo"))) (re.++ (re.* (re.* (str.to.re "p"))) (re.++ (re.union (re.* (str.to.re "qq")) (re.* (str.to.re "rr"))) (re.++ (re.union (re.union (str.to.re "sss") (str.to.re "tt")) (re.union (str.to.re "u") (str.to.re "vv"))) (re.++ (re.* (re.* (str.to.re "www"))) (re.++ (re.+ (re.+ (str.to.re "xxx"))) (re.++ (re.+ (re.+ (str.to.re "y"))) (re.++ (re.union (re.+ (str.to.re "zzz")) (re.+ (str.to.re "AA"))) (re.++ (re.+ (re.union (str.to.re "B") (str.to.re "CC"))) (re.++ (re.* (re.* (str.to.re "D"))) (re.++ (re.union (re.* (str.to.re "EEE")) (re.* (str.to.re "FFF"))) (re.++ (re.union (re.+ (str.to.re "G")) (re.+ (str.to.re "HHH"))) (re.++ (re.* (re.* (str.to.re "III"))) (re.++ (re.+ (re.* (str.to.re "J"))) (re.++ (re.* (re.union (str.to.re "KKK") (str.to.re "L"))) (re.++ (re.+ (re.* (str.to.re "MMM"))) (re.++ (re.union (re.union (str.to.re "N") (str.to.re "OO")) (re.union (str.to.re "P") (str.to.re "QQQ"))) (re.++ (re.union (re.* (str.to.re "R")) (re.* (str.to.re "SS"))) (re.++ (re.* (re.* (str.to.re "TTT"))) (re.++ (re.* (re.* (str.to.re "U"))) (re.++ (re.union (re.union (str.to.re "V") (str.to.re "WW")) (re.union (str.to.re "XXX") (str.to.re "Y"))) (re.++ (re.* (re.* (str.to.re "Z"))) (re.++ (re.* (re.* (str.to.re "!"))) (re.++ (re.union (re.* (str.to.re """""""")) (re.* (str.to.re "###"))) (re.++ (re.union (re.* (str.to.re "$$")) (re.* (str.to.re "%"))) (re.++ (re.* (re.+ (str.to.re "&&&"))) (re.++ (re.union (re.+ (str.to.re "''")) (re.+ (str.to.re "(("))) (re.++ (re.+ (re.union (str.to.re ")") (str.to.re "*"))) (re.++ (re.* (re.* (str.to.re "+++"))) (re.++ (re.+ (re.* (str.to.re ",,"))) (re.++ (re.union (re.+ (str.to.re "--")) (re.+ (str.to.re ".."))) (re.++ (re.+ (re.+ (str.to.re "//"))) (re.++ (re.union (re.* (str.to.re ":")) (re.* (str.to.re ";"))) (re.++ (re.* (re.union (str.to.re "<<<") (str.to.re "=="))) (re.++ (re.* (re.* (str.to.re ">>>"))) (re.++ (re.+ (re.+ (str.to.re "?"))) (re.++ (re.+ (re.* (str.to.re "@@@"))) (re.++ (re.+ (re.+ (str.to.re "[["))) (re.++ (re.+ (re.+ (str.to.re "\\"))) (re.+ (re.* (str.to.re "]]"))))))))))))))))))))))))))))))))))))))))))))))))))))))))))))))))))))))))))))))))))))))))))))))))))))))))))))))))))))))))))))))))))))))))))))))))))))))))))))))))))))))
(check-sat)